140
0 49 16 96 72 58 38 85 105 123 
42 87 67 29 13 6 104 76 69 68 
41 73 93 1 2 115 24 19 108 44 
23 3 88 99 138 75 36 106 134 52 
56 92 125 34 64 15 62 32 133 84 
37 71 43 79 20 26 132 47 55 135 
4 98 60 7 66 57 121 9 65 103 
126 35 110 86 113 12 21 112 14 22 
63 120 94 97 136 48 102 82 74 117 
80 90 50 137 30 77 131 10 25 130 
46 53 17 40 83 89 18 81 54 91 
119 95 78 109 127 39 124 27 5 118 
101 61 107 8 129 100 122 45 116 33 
59 114 70 11 31 128 111 28 51 139 
